
Gurobi 10.0.1 (linux64) logging started Sun Nov 26 16:34:41 2023

Set parameter LogFile to value "ArtificialInstance/ExperimentV2/S3T4K3/BaDo/gurobi91.txt"
Gurobi Optimizer version 10.0.1 build v10.0.1rc0 (linux64)

CPU model: AMD EPYC 7H12 64-Core Processor, instruction set [SSE2|AVX|AVX2]
Thread count: 128 physical cores, 128 logical processors, using up to 32 threads

Academic license 656792 - for non-commercial use only - registered to b.___@student.vu.nl
Optimize a model with 945 rows, 1520 columns and 5040 nonzeros
Model fingerprint: 0xe19194a1
Variable types: 0 continuous, 1520 integer (1520 binary)
Coefficient statistics:
  Matrix range     [1e+00, 1e+00]
  Objective range  [2e+00, 2e+01]
  Bounds range     [1e+00, 1e+00]
  RHS range        [1e+00, 1e+00]
Found heuristic solution: objective 431.6213941
Presolve time: 0.01s
Presolved: 945 rows, 1520 columns, 5040 nonzeros
Variable types: 0 continuous, 1520 integer (1520 binary)

Root relaxation: objective 4.083931e+01, 695 iterations, 0.01 seconds (0.01 work units)

    Nodes    |    Current Node    |     Objective Bounds      |     Work
 Expl Unexpl |  Obj  Depth IntInf | Incumbent    BestBd   Gap | It/Node Time

     0     0   40.83931    0  180  431.62139   40.83931  90.5%     -    0s
H    0     0                     171.7802841   40.83931  76.2%     -    0s
H    0     0                      79.5713919   40.83931  48.7%     -    0s
H    0     0                      69.7693961   48.18399  30.9%     -    0s
     0     0   48.18399    0  232   69.76940   48.18399  30.9%     -    0s
H    0     0                      61.8809923   48.18399  22.1%     -    0s
     0     0   51.38712    0  215   61.88099   51.38712  17.0%     -    0s
     0     0   53.93355    0  173   61.88099   53.93355  12.8%     -    0s
H    0     0                      60.7661302   53.93355  11.2%     -    0s
     0     0   54.38128    0  103   60.76613   54.38128  10.5%     -    0s
     0     0   54.53904    0  207   60.76613   54.53904  10.2%     -    0s
     0     0   54.54608    0  213   60.76613   54.54608  10.2%     -    0s
     0     0   54.93632    0  174   60.76613   54.93632  9.59%     -    0s
     0     0   54.98341    0  162   60.76613   54.98341  9.52%     -    0s
     0     0   55.11472    0  213   60.76613   55.11472  9.30%     -    0s
     0     0   55.12742    0  230   60.76613   55.12742  9.28%     -    0s
     0     0   55.55926    0  277   60.76613   55.55926  8.57%     -    0s
     0     0   55.55926    0  179   60.76613   55.55926  8.57%     -    0s
     0     0   55.55926    0  134   60.76613   55.55926  8.57%     -    0s
     0     0   55.55926    0  224   60.76613   55.55926  8.57%     -    0s
     0     0   55.55926    0  242   60.76613   55.55926  8.57%     -    0s
     0     0   55.55926    0  247   60.76613   55.55926  8.57%     -    0s
     0     0   55.92203    0   62   60.76613   55.92203  7.97%     -    0s
     0     0   56.11384    0  224   60.76613   56.11384  7.66%     -    0s
     0     0   56.11714    0  223   60.76613   56.11714  7.65%     -    0s
     0     0   56.15034    0  276   60.76613   56.15034  7.60%     -    0s
     0     0   56.16956    0  273   60.76613   56.16956  7.56%     -    0s
     0     0   56.16956    0  274   60.76613   56.16956  7.56%     -    0s
     0     0   56.17520    0  262   60.76613   56.17520  7.56%     -    0s
     0     0   56.17520    0  246   60.76613   56.17520  7.56%     -    0s
     0     2   56.17520    0  246   60.76613   56.17520  7.56%     -    0s

Cutting planes:
  Gomory: 9
  Zero half: 53
  RLT: 28

Explored 101 nodes (9057 simplex iterations) in 0.75 seconds (0.35 work units)
Thread count was 32 (of 128 available processors)

Solution count 6: 60.7661 61.881 69.7694 ... 431.621

Optimal solution found (tolerance 1.00e-04)
Best objective 6.076613024832e+01, best bound 6.076613024832e+01, gap 0.0000%
